Problem:    a
Rows:       282
Columns:    184 (150 integer, 146 binary)
Non-zeros:  899
Status:     INTEGER OPTIMAL
Objective:  z = 27390.39851 (MINimum)

   No.   Row name        Activity     Lower bound   Upper bound
------ ------------    ------------- ------------- -------------
     1 z                     27390.4                             
     2 costoHab                    0            -0             = 
     3 costoNafta                  0            -0             = 
     4 costAgua                    0            -0             = 
     5 comida                      0            -0             = 
     6 cantDeKm                    0            -0             = 
     7 orden[1,2]                 -4                           4 
     8 orden[1,3]                  4                           4 
     9 orden[1,4]                 -3                           4 
    10 orden[2,1]                  4                           4 
    11 orden[2,3]                  3                           4 
    12 orden[2,4]                  1                           4 
    13 orden[3,1]                  1                           4 
    14 orden[3,2]                 -3                           4 
    15 orden[3,4]                  3                           4 
    16 orden[4,1]                  3                           4 
    17 orden[4,2]                  4                           4 
    18 orden[4,3]                  2                           4 
    19 saleDeI[0]                  1             1             = 
    20 saleDeI[1]                  1             1             = 
    21 saleDeI[2]                  1             1             = 
    22 saleDeI[3]                  1             1             = 
    23 saleDeI[4]                  1             1             = 
    24 llegaAJ[0]                  1             1             = 
    25 llegaAJ[1]                  1             1             = 
    26 llegaAJ[2]                  1             1             = 
    27 llegaAJ[3]                  1             1             = 
    28 llegaAJ[4]                  1             1             = 
    29 viajeMasDe250[0]
                            -954.349                          -0 
    30 viajeMasDe250[1]
                            -4476.65                          -0 
    31 viajeMasDe250[2]
                            -2207.87                          -0 
    32 viajeMasDe250[3]
                            -1761.66                          -0 
    33 viajeMasDe250[4]
                            -2548.67                          -0 
    34 viajeMasDe250_1[0]
                             -998546                         250 
    35 viajeMasDe250_1[1]
                             -995023                         250 
    36 viajeMasDe250_1[2]
                             -997292                         250 
    37 viajeMasDe250_1[3]
                             -997738                         250 
    38 viajeMasDe250_1[4]
                             -996951                         250 
    39 cantHidratacion
                                   0            -0             = 
    40 hidraConHelad
                             -65.996                          -0 
    41 hidraConHelad_1
                             -999934                          -0 
    42 hidraSinHelad
                                   0                      -1e-15 
    43 hidraSinHelad_1
                               1e+06                       1e+06 
    44 cantEstirarse
                                   0            -0             = 
    45 estirarse2veces
                                   0            -0             = 
    46 precioAgua                  0            -0             = 
    47 visitaIantesJ[1,2]
                                  -4                       1e+06 
    48 visitaIantesJ[1,3]
                                  -1                       1e+06 
    49 visitaIantesJ[1,4]
                                  -3                       1e+06 
    50 visitaIantesJ[2,1]
                                   4                       1e+06 
    51 visitaIantesJ[2,3]
                                   3                       1e+06 
    52 visitaIantesJ[2,4]
                                   1                       1e+06 
    53 visitaIantesJ[3,1]
                                   1                       1e+06 
    54 visitaIantesJ[3,2]
                                  -3                       1e+06 
    55 visitaIantesJ[3,4]
                                  -2                       1e+06 
    56 visitaIantesJ[4,1]
                                   3                       1e+06 
    57 visitaIantesJ[4,2]
                                  -1                       1e+06 
    58 visitaIantesJ[4,3]
                                   2                       1e+06 
    59 visitaIantesJ_1[1,2]
                                   4                          -0 
    60 visitaIantesJ_1[1,3]
                                   1                          -0 
    61 visitaIantesJ_1[1,4]
                                   3                          -0 
    62 visitaIantesJ_1[2,1]
                                  -4                          -0 
    63 visitaIantesJ_1[2,3]
                                  -3                          -0 
    64 visitaIantesJ_1[2,4]
                                  -1                          -0 
    65 visitaIantesJ_1[3,1]
                                  -1                          -0 
    66 visitaIantesJ_1[3,2]
                                   3                          -0 
    67 visitaIantesJ_1[3,4]
                                   2                          -0 
    68 visitaIantesJ_1[4,1]
                                  -3                          -0 
    69 visitaIantesJ_1[4,2]
                                   1                          -0 
    70 visitaIantesJ_1[4,3]
                                  -2                          -0 
    71 A_0j[1]                     0            -0             = 
    72 A_0j[2]                     0            -0             = 
    73 A_0j[3]                     0            -0             = 
    74 A_0j[4]                     0            -0             = 
    75 A_i0[1]                     1             1             = 
    76 A_i0[2]                     1             1             = 
    77 A_i0[3]                     1             1             = 
    78 A_i0[4]                     1             1             = 
    79 ciudDistA[0,1,2]
                                  -1                          -0 
    80 ciudDistA[0,1,3]
                                  -1                          -0 
    81 ciudDistA[0,1,4]
                                  -1                          -0 
    82 ciudDistA[0,2,1]
                                   0                          -0 
    83 ciudDistA[0,2,3]
                                   0                          -0 
    84 ciudDistA[0,2,4]
                                   0                          -0 
    85 ciudDistA[0,3,1]
                                   0                          -0 
    86 ciudDistA[0,3,2]
                                   0                          -0 
    87 ciudDistA[0,3,4]
                                   0                          -0 
    88 ciudDistA[0,4,1]
                                   0                          -0 
    89 ciudDistA[0,4,2]
                                   0                          -0 
    90 ciudDistA[0,4,3]
                                   0                          -0 
    91 ciudDistA[1,0,2]
                                  -1                          -0 
    92 ciudDistA[1,0,3]
                                  -1                          -0 
    93 ciudDistA[1,0,4]
                                  -1                          -0 
    94 ciudDistA[1,2,0]
                                   0                          -0 
    95 ciudDistA[1,2,3]
                                   0                          -0 
    96 ciudDistA[1,2,4]
                                   0                          -0 
    97 ciudDistA[1,3,0]
                                  -1                          -0 
    98 ciudDistA[1,3,2]
                                  -1                          -0 
    99 ciudDistA[1,3,4]
                                  -1                          -0 
   100 ciudDistA[1,4,0]
                                   0                          -0 
   101 ciudDistA[1,4,2]
                                   0                          -0 
   102 ciudDistA[1,4,3]
                                   0                          -0 
   103 ciudDistA[2,0,1]
                                   0                          -0 
   104 ciudDistA[2,0,3]
                                   0                          -0 
   105 ciudDistA[2,0,4]
                                   0                          -0 
   106 ciudDistA[2,1,0]
                                   0                          -0 
   107 ciudDistA[2,1,3]
                                   0                          -0 
   108 ciudDistA[2,1,4]
                                   0                          -0 
   109 ciudDistA[2,3,0]
                                   0                          -0 
   110 ciudDistA[2,3,1]
                                   0                          -0 
   111 ciudDistA[2,3,4]
                                   0                          -0 
   112 ciudDistA[2,4,0]
                                   0                          -0 
   113 ciudDistA[2,4,1]
                                   0                          -0 
   114 ciudDistA[2,4,3]
                                   0                          -0 
   115 ciudDistA[3,0,1]
                                  -1                          -0 
   116 ciudDistA[3,0,2]
                                  -1                          -0 
   117 ciudDistA[3,0,4]
                                  -1                          -0 
   118 ciudDistA[3,1,0]
                                   0                          -0 
   119 ciudDistA[3,1,2]
                                   0                          -0 
   120 ciudDistA[3,1,4]
                                   0                          -0 
   121 ciudDistA[3,2,0]
                                   0                          -0 
   122 ciudDistA[3,2,1]
                                   0                          -0 
   123 ciudDistA[3,2,4]
                                   0                          -0 
   124 ciudDistA[3,4,0]
                                  -1                          -0 
   125 ciudDistA[3,4,1]
                                  -1                          -0 
   126 ciudDistA[3,4,2]
                                  -1                          -0 
   127 ciudDistA[4,0,1]
                                  -1                          -0 
   128 ciudDistA[4,0,2]
                                  -1                          -0 
   129 ciudDistA[4,0,3]
                                  -1                          -0 
   130 ciudDistA[4,1,0]
                                   0                          -0 
   131 ciudDistA[4,1,2]
                                   0                          -0 
   132 ciudDistA[4,1,3]
                                   0                          -0 
   133 ciudDistA[4,2,0]
                                  -1                          -0 
   134 ciudDistA[4,2,1]
                                  -1                          -0 
   135 ciudDistA[4,2,3]
                                  -1                          -0 
   136 ciudDistA[4,3,0]
                                   0                          -0 
   137 ciudDistA[4,3,1]
                                   0                          -0 
   138 ciudDistA[4,3,2]
                                   0                          -0 
   139 ciudDistA2[0,1,2]
                                   1                           1 
   140 ciudDistA2[0,1,3]
                                   1                           1 
   141 ciudDistA2[0,1,4]
                                   1                           1 
   142 ciudDistA2[0,2,1]
                                   0                           1 
   143 ciudDistA2[0,2,3]
                                   0                           1 
   144 ciudDistA2[0,2,4]
                                   0                           1 
   145 ciudDistA2[0,3,1]
                                   0                           1 
   146 ciudDistA2[0,3,2]
                                   0                           1 
   147 ciudDistA2[0,3,4]
                                   0                           1 
   148 ciudDistA2[0,4,1]
                                   0                           1 
   149 ciudDistA2[0,4,2]
                                   0                           1 
   150 ciudDistA2[0,4,3]
                                   0                           1 
   151 ciudDistA2[1,0,2]
                                   1                           1 
   152 ciudDistA2[1,0,3]
                                   1                           1 
   153 ciudDistA2[1,0,4]
                                   1                           1 
   154 ciudDistA2[1,2,0]
                                   0                           1 
   155 ciudDistA2[1,2,3]
                                   0                           1 
   156 ciudDistA2[1,2,4]
                                   0                           1 
   157 ciudDistA2[1,3,0]
                                   1                           1 
   158 ciudDistA2[1,3,2]
                                   1                           1 
   159 ciudDistA2[1,3,4]
                                   1                           1 
   160 ciudDistA2[1,4,0]
                                   0                           1 
   161 ciudDistA2[1,4,2]
                                   0                           1 
   162 ciudDistA2[1,4,3]
                                   0                           1 
   163 ciudDistA2[2,0,1]
                                   1                           1 
   164 ciudDistA2[2,0,3]
                                   1                           1 
   165 ciudDistA2[2,0,4]
                                   1                           1 
   166 ciudDistA2[2,1,0]
                                   0                           1 
   167 ciudDistA2[2,1,3]
                                   0                           1 
   168 ciudDistA2[2,1,4]
                                   0                           1 
   169 ciudDistA2[2,3,0]
                                   0                           1 
   170 ciudDistA2[2,3,1]
                                   0                           1 
   171 ciudDistA2[2,3,4]
                                   0                           1 
   172 ciudDistA2[2,4,0]
                                   0                           1 
   173 ciudDistA2[2,4,1]
                                   0                           1 
   174 ciudDistA2[2,4,3]
                                   0                           1 
   175 ciudDistA2[3,0,1]
                                   1                           1 
   176 ciudDistA2[3,0,2]
                                   1                           1 
   177 ciudDistA2[3,0,4]
                                   1                           1 
   178 ciudDistA2[3,1,0]
                                   0                           1 
   179 ciudDistA2[3,1,2]
                                   0                           1 
   180 ciudDistA2[3,1,4]
                                   0                           1 
   181 ciudDistA2[3,2,0]
                                   0                           1 
   182 ciudDistA2[3,2,1]
                                   0                           1 
   183 ciudDistA2[3,2,4]
                                   0                           1 
   184 ciudDistA2[3,4,0]
                                   1                           1 
   185 ciudDistA2[3,4,1]
                                   1                           1 
   186 ciudDistA2[3,4,2]
                                   1                           1 
   187 ciudDistA2[4,0,1]
                                   1                           1 
   188 ciudDistA2[4,0,2]
                                   1                           1 
   189 ciudDistA2[4,0,3]
                                   1                           1 
   190 ciudDistA2[4,1,0]
                                   0                           1 
   191 ciudDistA2[4,1,2]
                                   0                           1 
   192 ciudDistA2[4,1,3]
                                   0                           1 
   193 ciudDistA2[4,2,0]
                                   1                           1 
   194 ciudDistA2[4,2,1]
                                   1                           1 
   195 ciudDistA2[4,2,3]
                                   1                           1 
   196 ciudDistA2[4,3,0]
                                   0                           1 
   197 ciudDistA2[4,3,1]
                                   0                           1 
   198 ciudDistA2[4,3,2]
                                   0                           1 
   199 xIguales1[0]                1             1             = 
   200 xIguales1[1]                1             1             = 
   201 xIguales1[2]                1             1             = 
   202 xIguales1[3]                1             1             = 
   203 xIguales1[4]                1             1             = 
   204 xTramo1_1[0]                0                          -0 
   205 xTramo1_1[1]                0                          -0 
   206 xTramo1_1[2]                0                          -0 
   207 xTramo1_1[3]                0                          -0 
   208 xTramo1_1[4]                0                          -0 
   209 xTramo2[0]                  0                      -1e-15 
   210 xTramo2[1]                  0                      -1e-15 
   211 xTramo2[2]                  0                      -1e-15 
   212 xTramo2[3]                  0                      -1e-15 
   213 xTramo2[4]                  0                      -1e-15 
   214 xTramo2_2[0]                0                          -0 
   215 xTramo2_2[1]                0                          -0 
   216 xTramo2_2[2]                0                          -0 
   217 xTramo2_2[3]                0                          -0 
   218 xTramo2_2[4]                0                          -0 
   219 xTramo3[0]                  0                      -1e-15 
   220 xTramo3[1]                  0                      -1e-15 
   221 xTramo3[2]                  0                      -1e-15 
   222 xTramo3[3]                  0                      -1e-15 
   223 xTramo3[4]                  0                      -1e-15 
   224 xTramo3_3[0]                0                          -0 
   225 xTramo3_3[1]                0                          -0 
   226 xTramo3_3[2]                0                          -0 
   227 xTramo3_3[3]                0                          -0 
   228 xTramo3_3[4]                0                          -0 
   229 xTramo4[0]                  0                      -1e-15 
   230 xTramo4[1]                  0                      -1e-15 
   231 xTramo4[2]                  0                      -1e-15 
   232 xTramo4[3]                  0                      -1e-15 
   233 xTramo4[4]                  0                      -1e-15 
   234 xTramo4_4[0]          -970000                          -0 
   235 xTramo4_4[1]          -970000                          -0 
   236 xTramo4_4[2]          -970000                          -0 
   237 xTramo4_4[3]          -970000                          -0 
   238 xTramo4_4[4]          -970000                          -0 
   239 andI[0]                    -1                          -0 
   240 andI[1]                    -1                          -0 
   241 andI[2]                    -1                          -0 
   242 andI[3]                    -1                          -0 
   243 andI[4]                    -1                          -0 
   244 andI2[0]                    1                           1 
   245 andI2[1]                    1                           1 
   246 andI2[2]                    1                           1 
   247 andI2[3]                    1                           1 
   248 andI2[4]                    1                           1 
   249 andII[0]                   -1                          -0 
   250 andII[1]                   -1                          -0 
   251 andII[2]                   -1                          -0 
   252 andII[3]                   -1                          -0 
   253 andII[4]                   -1                          -0 
   254 andII2[0]                   1                           1 
   255 andII2[1]                   1                           1 
   256 andII2[2]                   1                           1 
   257 andII2[3]                   1                           1 
   258 andII2[4]                   1                           1 
   259 andIII[0]                  -1                          -0 
   260 andIII[1]                  -1                          -0 
   261 andIII[2]                  -1                          -0 
   262 andIII[3]                  -1                          -0 
   263 andIII[4]                  -1                          -0 
   264 andIII2[0]                  1                           1 
   265 andIII2[1]                  1                           1 
   266 andIII2[2]                  1                           1 
   267 andIII2[3]                  1                           1 
   268 andIII2[4]                  1                           1 
   269 andIV[0]                    0                          -0 
   270 andIV[1]                    0                          -0 
   271 andIV[2]                    0                          -0 
   272 andIV[3]                    0                          -0 
   273 andIV[4]                    0                          -0 
   274 andIV2[0]                   1                           1 
   275 andIV2[1]                   1                           1 
   276 andIV2[2]                   1                           1 
   277 andIV2[3]                   1                           1 
   278 andIV2[4]                   1                           1 
   279 recorridoC1                 0            -0             = 
   280 recorridoC2                 0            -0             = 
   281 recorridoC3                 0            -0             = 
   282 recorridoC4                 0            -0             = 

   No. Column name       Activity     Lower bound   Upper bound
------ ------------    ------------- ------------- -------------
     1 U[2]         *              4             0               
     2 U[1]         *              0             0               
     3 U[3]         *              1             0               
     4 U[4]         *              3             0               
     5 Y[0,1]       *              1             0             1 
     6 Y[0,2]       *              0             0             1 
     7 Y[0,3]       *              0             0             1 
     8 Y[0,4]       *              0             0             1 
     9 Y[1,0]       *              0             0             1 
    10 Y[1,2]       *              0             0             1 
    11 Y[1,3]       *              1             0             1 
    12 Y[1,4]       *              0             0             1 
    13 Y[2,0]       *              1             0             1 
    14 Y[2,1]       *              0             0             1 
    15 Y[2,3]       *              0             0             1 
    16 Y[2,4]       *              0             0             1 
    17 Y[3,0]       *              0             0             1 
    18 Y[3,1]       *              0             0             1 
    19 Y[3,2]       *              0             0             1 
    20 Y[3,4]       *              1             0             1 
    21 Y[4,0]       *              0             0             1 
    22 Y[4,1]       *              0             0             1 
    23 Y[4,2]       *              1             0             1 
    24 Y[4,3]       *              0             0             1 
    25 D                     13199.2             0               
    26 DES[0]       *              1             0             1 
    27 DES[1]       *              1             0             1 
    28 DES[2]       *              1             0             1 
    29 DES[3]       *              1             0             1 
    30 DES[4]       *              1             0             1 
    31 E                     131.992             0               
    32 H            *              1             0             1 
    33 Agua                  131.992             0               
    34 Hidr0                       0             0               
    35 Hidr1                  65.996             0               
    36 Hidr                   65.996             0               
    37 KI[0]                       0             0               
    38 KI[1]                       0             0               
    39 KI[2]                       0             0               
    40 KI[3]                       0             0               
    41 KI[4]                       0             0               
    42 KII[0]                      0             0               
    43 KII[1]                      0             0               
    44 KII[2]                      0             0               
    45 KII[3]                      0             0               
    46 KII[4]                      0             0               
    47 KIII[0]                     0             0               
    48 KIII[1]                     0             0               
    49 KIII[2]                     0             0               
    50 KIII[3]                     0             0               
    51 KIII[4]                     0             0               
    52 KIV[0]                  30000             0               
    53 KIV[1]                  30000             0               
    54 KIV[2]                  30000             0               
    55 KIV[3]                  30000             0               
    56 KIV[4]                  30000             0               
    57 XI[0]        *              0             0             1 
    58 XI[1]        *              0             0             1 
    59 XI[2]        *              0             0             1 
    60 XI[3]        *              0             0             1 
    61 XI[4]        *              0             0             1 
    62 XII[0]       *              0             0             1 
    63 XII[1]       *              0             0             1 
    64 XII[2]       *              0             0             1 
    65 XII[3]       *              0             0             1 
    66 XII[4]       *              0             0             1 
    67 XIII[0]      *              0             0             1 
    68 XIII[1]      *              0             0             1 
    69 XIII[2]      *              0             0             1 
    70 XIII[3]      *              0             0             1 
    71 XIII[4]      *              0             0             1 
    72 XIV[0]       *              1             0             1 
    73 XIV[1]       *              1             0             1 
    74 XIV[2]       *              1             0             1 
    75 XIV[3]       *              1             0             1 
    76 XIV[4]       *              1             0             1 
    77 A[1,2]       *              0             0             1 
    78 A[1,3]       *              0             0             1 
    79 A[1,4]       *              0             0             1 
    80 A[2,1]       *              0             0             1 
    81 A[2,3]       *              0             0             1 
    82 A[2,4]       *              0             0             1 
    83 A[3,1]       *              0             0             1 
    84 A[3,2]       *              0             0             1 
    85 A[3,4]       *              0             0             1 
    86 A[4,1]       *              0             0             1 
    87 A[4,2]       *              0             0             1 
    88 A[4,3]       *              0             0             1 
    89 A[1,0]       *              0             0             1 
    90 A[2,0]       *              0             0             1 
    91 A[3,0]       *              0             0             1 
    92 A[4,0]       *              0             0             1 
    93 A[0,1]       *              1             0             1 
    94 A[0,2]       *              1             0             1 
    95 A[0,3]       *              1             0             1 
    96 A[0,4]       *              1             0             1 
    97 V[0,1,2]     *              0             0             1 
    98 V[0,1,3]     *              0             0             1 
    99 V[0,1,4]     *              0             0             1 
   100 V[0,2,1]     *              0             0             1 
   101 V[0,2,3]     *              0             0             1 
   102 V[0,2,4]     *              0             0             1 
   103 V[0,3,1]     *              0             0             1 
   104 V[0,3,2]     *              0             0             1 
   105 V[0,3,4]     *              0             0             1 
   106 V[0,4,1]     *              0             0             1 
   107 V[0,4,2]     *              0             0             1 
   108 V[0,4,3]     *              0             0             1 
   109 V[1,0,2]     *              0             0             1 
   110 V[1,0,3]     *              0             0             1 
   111 V[1,0,4]     *              0             0             1 
   112 V[1,2,0]     *              0             0             1 
   113 V[1,2,3]     *              0             0             1 
   114 V[1,2,4]     *              0             0             1 
   115 V[1,3,0]     *              0             0             1 
   116 V[1,3,2]     *              0             0             1 
   117 V[1,3,4]     *              0             0             1 
   118 V[1,4,0]     *              0             0             1 
   119 V[1,4,2]     *              0             0             1 
   120 V[1,4,3]     *              0             0             1 
   121 V[2,0,1]     *              1             0             1 
   122 V[2,0,3]     *              1             0             1 
   123 V[2,0,4]     *              1             0             1 
   124 V[2,1,0]     *              0             0             1 
   125 V[2,1,3]     *              0             0             1 
   126 V[2,1,4]     *              0             0             1 
   127 V[2,3,0]     *              0             0             1 
   128 V[2,3,1]     *              0             0             1 
   129 V[2,3,4]     *              0             0             1 
   130 V[2,4,0]     *              0             0             1 
   131 V[2,4,1]     *              0             0             1 
   132 V[2,4,3]     *              0             0             1 
   133 V[3,0,1]     *              0             0             1 
   134 V[3,0,2]     *              0             0             1 
   135 V[3,0,4]     *              0             0             1 
   136 V[3,1,0]     *              0             0             1 
   137 V[3,1,2]     *              0             0             1 
   138 V[3,1,4]     *              0             0             1 
   139 V[3,2,0]     *              0             0             1 
   140 V[3,2,1]     *              0             0             1 
   141 V[3,2,4]     *              0             0             1 
   142 V[3,4,0]     *              0             0             1 
   143 V[3,4,1]     *              0             0             1 
   144 V[3,4,2]     *              0             0             1 
   145 V[4,0,1]     *              0             0             1 
   146 V[4,0,2]     *              0             0             1 
   147 V[4,0,3]     *              0             0             1 
   148 V[4,1,0]     *              0             0             1 
   149 V[4,1,2]     *              0             0             1 
   150 V[4,1,3]     *              0             0             1 
   151 V[4,2,0]     *              0             0             1 
   152 V[4,2,1]     *              0             0             1 
   153 V[4,2,3]     *              0             0             1 
   154 V[4,3,0]     *              0             0             1 
   155 V[4,3,1]     *              0             0             1 
   156 V[4,3,2]     *              0             0             1 
   157 ANDI[0]      *              0             0             1 
   158 ANDI[1]      *              0             0             1 
   159 ANDI[2]      *              0             0             1 
   160 ANDI[3]      *              0             0             1 
   161 ANDI[4]      *              0             0             1 
   162 ANDII[0]     *              0             0             1 
   163 ANDII[1]     *              0             0             1 
   164 ANDII[2]     *              0             0             1 
   165 ANDII[3]     *              0             0             1 
   166 ANDII[4]     *              0             0             1 
   167 ANDIII[0]    *              0             0             1 
   168 ANDIII[1]    *              0             0             1 
   169 ANDIII[2]    *              0             0             1 
   170 ANDIII[3]    *              0             0             1 
   171 ANDIII[4]    *              0             0             1 
   172 ANDIV[0]     *              1             0             1 
   173 ANDIV[1]     *              1             0             1 
   174 ANDIV[2]     *              1             0             1 
   175 ANDIV[3]     *              1             0             1 
   176 ANDIV[4]     *              1             0             1 
   177 C1                          0             0               
   178 C2                          0             0               
   179 C3                          0             0               
   180 C4                         10             0               
   181 Habitaciones              500             0               
   182 Nafta                 26398.4             0               
   183 CostoAgua             191.992             0               
   184 Comida                    150             0               

Integer feasibility conditions:

KKT.PE: max.abs.err = 0.00e+00 on row 0
        max.rel.err = 0.00e+00 on row 0
        High quality

KKT.PB: max.abs.err = 4.00e+00 on row 59
        max.rel.err = 4.00e+00 on row 59
        SOLUTION IS INFEASIBLE

End of output
